
c turning on binary mode checking

c parsing input formula with 24 variables and 960 clauses

c finished parsing, read 1364 bytes from proof file

c detected empty clause; start verification via backward checking

c 223 of 960 clauses in core                            

c 143 of 155 lemmas in core using 1606 resolution steps

c 0 RAT lemmas in core; 5 redundant literals in core lemmas

s VERIFIED

c verification time: 0.055 seconds
